c t pwmc
c p show 8 9 14 15 20 21 23 27 28 29 32 37 39 41 53 56 58 65 68 70 75 76 77 87 88 89 94 95 104 112 113 119 120 124 126 130 131 135 137 138 141 142 144 146 149 152 154 163 170 173 174 176 178 179 182 189 192 193 197 199 200 202 206 207 208 209 210 211 213 215 218 219 220 222 224 226 230 231 234 237 239 240 242 244 248 249 254 256 257 261 264 266 269 270 272 282 283 287 289 291 292 293 303 304 309 315 323 324 325 326 334 336 337 342 345 346 347 349 350 358 362 366 367 372 375 379 380 0
c file mc2023_track4_139.cnf
p cnf 380 1621
-1 -191 0
-2 -192 0
-3 -193 0
-4 -194 0
-5 -195 0
-6 -196 0
-7 -197 0
-8 -198 0
-9 -199 0
-10 -200 0
-11 -201 0
-12 -202 0
-13 -203 0
-14 -204 0
-15 -205 0
-16 -206 0
-17 -207 0
-18 -208 0
-19 -209 0
-20 -210 0
-21 -211 0
-22 -212 0
-23 -213 0
-24 -214 0
-25 -215 0
-26 -216 0
-27 -217 0
-28 -218 0
-29 -219 0
-30 -220 0
-31 -221 0
-32 -222 0
-33 -223 0
-34 -224 0
-35 -225 0
-36 -226 0
-37 -227 0
-38 -228 0
-39 -229 0
-40 -230 0
-41 -231 0
-42 -232 0
-43 -233 0
-44 -234 0
-45 -235 0
-46 -236 0
-47 -237 0
-48 -238 0
-49 -239 0
-50 -240 0
-51 -241 0
-52 -242 0
-53 -243 0
-54 -244 0
-55 -245 0
-56 -246 0
-57 -247 0
-58 -248 0
-59 -249 0
-60 -250 0
-61 -251 0
-62 -252 0
-63 -253 0
-64 -254 0
-65 -255 0
-66 -256 0
-67 -257 0
-68 -258 0
-69 -259 0
-70 -260 0
-71 -261 0
-72 -262 0
-73 -263 0
-74 -264 0
-75 -265 0
-76 -266 0
-77 -267 0
-78 -268 0
-79 -269 0
-80 -270 0
-81 -271 0
-82 -272 0
-83 -273 0
-84 -274 0
-85 -275 0
-86 -276 0
-87 -277 0
-88 -278 0
-89 -279 0
-90 -280 0
-91 -281 0
-92 -282 0
-93 -283 0
-94 -284 0
-95 -285 0
-96 -286 0
-97 -287 0
-98 -288 0
-99 -289 0
-100 -290 0
-101 -291 0
-102 -292 0
-103 -293 0
-104 -294 0
-105 -295 0
-106 -296 0
-107 -297 0
-108 -298 0
-109 -299 0
-110 -300 0
-111 -301 0
-112 -302 0
-113 -303 0
-114 -304 0
-115 -305 0
-116 -306 0
-117 -307 0
-118 -308 0
-119 -309 0
-120 -310 0
-121 -311 0
-122 -312 0
-123 -313 0
-124 -314 0
-125 -315 0
-126 -316 0
-127 -317 0
-128 -318 0
-129 -319 0
-130 -320 0
-131 -321 0
-132 -322 0
-133 -323 0
-134 -324 0
-135 -325 0
-136 -326 0
-137 -327 0
-138 -328 0
-139 -329 0
-140 -330 0
-141 -331 0
-142 -332 0
-143 -333 0
-144 -334 0
-145 -335 0
-146 -336 0
-147 -337 0
-148 -338 0
-149 -339 0
-150 -340 0
-151 -341 0
-152 -342 0
-153 -343 0
-154 -344 0
-155 -345 0
-156 -346 0
-157 -347 0
-158 -348 0
-159 -349 0
-160 -350 0
-161 -351 0
-162 -352 0
-163 -353 0
-164 -354 0
-165 -355 0
-166 -356 0
-167 -357 0
-168 -358 0
-169 -359 0
-170 -360 0
-171 -361 0
-172 -362 0
-173 -363 0
-174 -364 0
-175 -365 0
-176 -366 0
-177 -367 0
-178 -368 0
-179 -369 0
-180 -370 0
-181 -371 0
-182 -372 0
-183 -373 0
-184 -374 0
-185 -375 0
-186 -376 0
-187 -377 0
-188 -378 0
-189 -379 0
-190 -380 0
-1 0
-191 0
34 0
-224 0
-60 0
250 0
1 191 34 224 0
-1 191 -34 224 0
1 -191 34 -224 0
1 191 24 214 0
-1 191 -24 214 0
1 -191 24 -214 0
1 191 60 250 0
-1 191 -60 250 0
1 -191 60 -250 0
1 191 146 336 0
-1 191 -146 336 0
1 -191 146 -336 0
1 191 119 309 0
-1 191 -119 309 0
1 -191 119 -309 0
2 192 184 374 0
-2 192 -184 374 0
2 -192 184 -374 0
2 192 75 265 0
-2 192 -75 265 0
2 -192 75 -265 0
2 192 171 361 0
-2 192 -171 361 0
2 -192 171 -361 0
2 192 105 295 0
-2 192 -105 295 0
2 -192 105 -295 0
2 192 162 352 0
-2 192 -162 352 0
2 -192 162 -352 0
3 193 169 359 0
-3 193 -169 359 0
3 -193 169 -359 0
3 193 154 344 0
-3 193 -154 344 0
3 -193 154 -344 0
3 193 130 320 0
-3 193 -130 320 0
3 -193 130 -320 0
3 193 19 209 0
-3 193 -19 209 0
3 -193 19 -209 0
3 193 149 339 0
-3 193 -149 339 0
3 -193 149 -339 0
4 194 33 223 0
-4 194 -33 223 0
4 -194 33 -223 0
4 194 188 378 0
-4 194 -188 378 0
4 -194 188 -378 0
4 194 53 243 0
-4 194 -53 243 0
4 -194 53 -243 0
4 194 21 211 0
-4 194 -21 211 0
4 -194 21 -211 0
4 194 153 343 0
-4 194 -153 343 0
4 -194 153 -343 0
5 195 51 241 0
-5 195 -51 241 0
5 -195 51 -241 0
5 195 29 219 0
-5 195 -29 219 0
5 -195 29 -219 0
5 195 62 252 0
-5 195 -62 252 0
5 -195 62 -252 0
5 195 120 310 0
-5 195 -120 310 0
5 -195 120 -310 0
5 195 91 281 0
-5 195 -91 281 0
5 -195 91 -281 0
6 196 112 302 0
-6 196 -112 302 0
6 -196 112 -302 0
6 196 139 329 0
-6 196 -139 329 0
6 -196 139 -329 0
6 196 187 377 0
-6 196 -187 377 0
6 -196 187 -377 0
6 196 143 333 0
-6 196 -143 333 0
6 -196 143 -333 0
6 196 36 226 0
-6 196 -36 226 0
6 -196 36 -226 0
7 197 35 225 0
-7 197 -35 225 0
7 -197 35 -225 0
7 197 162 352 0
-7 197 -162 352 0
7 -197 162 -352 0
7 197 177 367 0
-7 197 -177 367 0
7 -197 177 -367 0
7 197 68 258 0
-7 197 -68 258 0
7 -197 68 -258 0
7 197 152 342 0
-7 197 -152 342 0
7 -197 152 -342 0
8 198 91 281 0
-8 198 -91 281 0
8 -198 91 -281 0
8 198 94 284 0
-8 198 -94 284 0
8 -198 94 -284 0
8 198 69 259 0
-8 198 -69 259 0
8 -198 69 -259 0
8 198 151 341 0
-8 198 -151 341 0
8 -198 151 -341 0
8 198 13 203 0
-8 198 -13 203 0
8 -198 13 -203 0
9 199 51 241 0
-9 199 -51 241 0
9 -199 51 -241 0
9 199 142 332 0
-9 199 -142 332 0
9 -199 142 -332 0
9 199 60 250 0
-9 199 -60 250 0
9 -199 60 -250 0
9 199 164 354 0
-9 199 -164 354 0
9 -199 164 -354 0
9 199 189 379 0
-9 199 -189 379 0
9 -199 189 -379 0
10 200 119 309 0
-10 200 -119 309 0
10 -200 119 -309 0
10 200 186 376 0
-10 200 -186 376 0
10 -200 186 -376 0
10 200 104 294 0
-10 200 -104 294 0
10 -200 104 -294 0
10 200 19 209 0
-10 200 -19 209 0
10 -200 19 -209 0
10 200 46 236 0
-10 200 -46 236 0
10 -200 46 -236 0
11 201 149 339 0
-11 201 -149 339 0
11 -201 149 -339 0
11 201 108 298 0
-11 201 -108 298 0
11 -201 108 -298 0
11 201 59 249 0
-11 201 -59 249 0
11 -201 59 -249 0
11 201 104 294 0
-11 201 -104 294 0
11 -201 104 -294 0
11 201 175 365 0
-11 201 -175 365 0
11 -201 175 -365 0
12 202 161 351 0
-12 202 -161 351 0
12 -202 161 -351 0
12 202 74 264 0
-12 202 -74 264 0
12 -202 74 -264 0
12 202 100 290 0
-12 202 -100 290 0
12 -202 100 -290 0
12 202 138 328 0
-12 202 -138 328 0
12 -202 138 -328 0
12 202 149 339 0
-12 202 -149 339 0
12 -202 149 -339 0
13 203 22 212 0
-13 203 -22 212 0
13 -203 22 -212 0
13 203 25 215 0
-13 203 -25 215 0
13 -203 25 -215 0
13 203 168 358 0
-13 203 -168 358 0
13 -203 168 -358 0
13 203 164 354 0
-13 203 -164 354 0
13 -203 164 -354 0
14 204 143 333 0
-14 204 -143 333 0
14 -204 143 -333 0
14 204 165 355 0
-14 204 -165 355 0
14 -204 165 -355 0
14 204 131 321 0
-14 204 -131 321 0
14 -204 131 -321 0
14 204 98 288 0
-14 204 -98 288 0
14 -204 98 -288 0
14 204 92 282 0
-14 204 -92 282 0
14 -204 92 -282 0
15 205 89 279 0
-15 205 -89 279 0
15 -205 89 -279 0
15 205 27 217 0
-15 205 -27 217 0
15 -205 27 -217 0
15 205 162 352 0
-15 205 -162 352 0
15 -205 162 -352 0
15 205 182 372 0
-15 205 -182 372 0
15 -205 182 -372 0
15 205 172 362 0
-15 205 -172 362 0
15 -205 172 -362 0
16 206 47 237 0
-16 206 -47 237 0
16 -206 47 -237 0
16 206 145 335 0
-16 206 -145 335 0
16 -206 145 -335 0
16 206 58 248 0
-16 206 -58 248 0
16 -206 58 -248 0
16 206 28 218 0
-16 206 -28 218 0
16 -206 28 -218 0
16 206 110 300 0
-16 206 -110 300 0
16 -206 110 -300 0
17 207 85 275 0
-17 207 -85 275 0
17 -207 85 -275 0
17 207 94 284 0
-17 207 -94 284 0
17 -207 94 -284 0
17 207 158 348 0
-17 207 -158 348 0
17 -207 158 -348 0
17 207 127 317 0
-17 207 -127 317 0
17 -207 127 -317 0
17 207 139 329 0
-17 207 -139 329 0
17 -207 139 -329 0
18 208 61 251 0
-18 208 -61 251 0
18 -208 61 -251 0
18 208 176 366 0
-18 208 -176 366 0
18 -208 176 -366 0
18 208 79 269 0
-18 208 -79 269 0
18 -208 79 -269 0
18 208 19 209 0
-18 208 -19 209 0
18 -208 19 -209 0
18 208 40 230 0
-18 208 -40 230 0
18 -208 40 -230 0
19 209 63 253 0
-19 209 -63 253 0
19 -209 63 -253 0
19 209 107 297 0
-19 209 -107 297 0
19 -209 107 -297 0
20 210 55 245 0
-20 210 -55 245 0
20 -210 55 -245 0
20 210 105 295 0
-20 210 -105 295 0
20 -210 105 -295 0
20 210 30 220 0
-20 210 -30 220 0
20 -210 30 -220 0
20 210 50 240 0
-20 210 -50 240 0
20 -210 50 -240 0
20 210 182 372 0
-20 210 -182 372 0
20 -210 182 -372 0
21 211 117 307 0
-21 211 -117 307 0
21 -211 117 -307 0
21 211 129 319 0
-21 211 -129 319 0
21 -211 129 -319 0
21 211 54 244 0
-21 211 -54 244 0
21 -211 54 -244 0
21 211 26 216 0
-21 211 -26 216 0
21 -211 26 -216 0
22 212 126 316 0
-22 212 -126 316 0
22 -212 126 -316 0
22 212 75 265 0
-22 212 -75 265 0
22 -212 75 -265 0
22 212 89 279 0
-22 212 -89 279 0
22 -212 89 -279 0
22 212 71 261 0
-22 212 -71 261 0
22 -212 71 -261 0
23 213 29 219 0
-23 213 -29 219 0
23 -213 29 -219 0
23 213 38 228 0
-23 213 -38 228 0
23 -213 38 -228 0
23 213 181 371 0
-23 213 -181 371 0
23 -213 181 -371 0
23 213 148 338 0
-23 213 -148 338 0
23 -213 148 -338 0
23 213 47 237 0
-23 213 -47 237 0
23 -213 47 -237 0
24 214 99 289 0
-24 214 -99 289 0
24 -214 99 -289 0
24 214 113 303 0
-24 214 -113 303 0
24 -214 113 -303 0
24 214 99 289 0
-24 214 -99 289 0
24 -214 99 -289 0
24 214 123 313 0
-24 214 -123 313 0
24 -214 123 -313 0
25 215 28 218 0
-25 215 -28 218 0
25 -215 28 -218 0
25 215 129 319 0
-25 215 -129 319 0
25 -215 129 -319 0
25 215 41 231 0
-25 215 -41 231 0
25 -215 41 -231 0
25 215 61 251 0
-25 215 -61 251 0
25 -215 61 -251 0
26 216 109 299 0
-26 216 -109 299 0
26 -216 109 -299 0
26 216 28 218 0
-26 216 -28 218 0
26 -216 28 -218 0
26 216 89 279 0
-26 216 -89 279 0
26 -216 89 -279 0
26 216 189 379 0
-26 216 -189 379 0
26 -216 189 -379 0
27 217 140 330 0
-27 217 -140 330 0
27 -217 140 -330 0
27 217 131 321 0
-27 217 -131 321 0
27 -217 131 -321 0
27 217 144 334 0
-27 217 -144 334 0
27 -217 144 -334 0
27 217 28 218 0
-27 217 -28 218 0
27 -217 28 -218 0
28 218 77 267 0
-28 218 -77 267 0
28 -218 77 -267 0
29 219 55 245 0
-29 219 -55 245 0
29 -219 55 -245 0
29 219 115 305 0
-29 219 -115 305 0
29 -219 115 -305 0
29 219 119 309 0
-29 219 -119 309 0
29 -219 119 -309 0
30 220 138 328 0
-30 220 -138 328 0
30 -220 138 -328 0
30 220 102 292 0
-30 220 -102 292 0
30 -220 102 -292 0
30 220 172 362 0
-30 220 -172 362 0
30 -220 172 -362 0
30 220 167 357 0
-30 220 -167 357 0
30 -220 167 -357 0
31 221 50 240 0
-31 221 -50 240 0
31 -221 50 -240 0
31 221 122 312 0
-31 221 -122 312 0
31 -221 122 -312 0
31 221 64 254 0
-31 221 -64 254 0
31 -221 64 -254 0
31 221 62 252 0
-31 221 -62 252 0
31 -221 62 -252 0
31 221 83 273 0
-31 221 -83 273 0
31 -221 83 -273 0
32 222 114 304 0
-32 222 -114 304 0
32 -222 114 -304 0
32 222 104 294 0
-32 222 -104 294 0
32 -222 104 -294 0
32 222 188 378 0
-32 222 -188 378 0
32 -222 188 -378 0
32 222 74 264 0
-32 222 -74 264 0
32 -222 74 -264 0
32 222 133 323 0
-32 222 -133 323 0
32 -222 133 -323 0
33 223 67 257 0
-33 223 -67 257 0
33 -223 67 -257 0
33 223 50 240 0
-33 223 -50 240 0
33 -223 50 -240 0
33 223 123 313 0
-33 223 -123 313 0
33 -223 123 -313 0
33 223 124 314 0
-33 223 -124 314 0
33 -223 124 -314 0
34 224 117 307 0
-34 224 -117 307 0
34 -224 117 -307 0
34 224 113 303 0
-34 224 -113 303 0
34 -224 113 -303 0
34 224 125 315 0
-34 224 -125 315 0
34 -224 125 -315 0
34 224 60 250 0
-34 224 -60 250 0
34 -224 60 -250 0
35 225 110 300 0
-35 225 -110 300 0
35 -225 110 -300 0
35 225 158 348 0
-35 225 -158 348 0
35 -225 158 -348 0
35 225 116 306 0
-35 225 -116 306 0
35 -225 116 -306 0
35 225 90 280 0
-35 225 -90 280 0
35 -225 90 -280 0
36 226 161 351 0
-36 226 -161 351 0
36 -226 161 -351 0
36 226 124 314 0
-36 226 -124 314 0
36 -226 124 -314 0
36 226 95 285 0
-36 226 -95 285 0
36 -226 95 -285 0
36 226 39 229 0
-36 226 -39 229 0
36 -226 39 -229 0
37 227 163 353 0
-37 227 -163 353 0
37 -227 163 -353 0
37 227 80 270 0
-37 227 -80 270 0
37 -227 80 -270 0
37 227 181 371 0
-37 227 -181 371 0
37 -227 181 -371 0
37 227 42 232 0
-37 227 -42 232 0
37 -227 42 -232 0
37 227 142 332 0
-37 227 -142 332 0
37 -227 142 -332 0
38 228 85 275 0
-38 228 -85 275 0
38 -228 85 -275 0
38 228 54 244 0
-38 228 -54 244 0
38 -228 54 -244 0
38 228 143 333 0
-38 228 -143 333 0
38 -228 143 -333 0
38 228 153 343 0
-38 228 -153 343 0
38 -228 153 -343 0
39 229 56 246 0
-39 229 -56 246 0
39 -229 56 -246 0
39 229 114 304 0
-39 229 -114 304 0
39 -229 114 -304 0
39 229 96 286 0
-39 229 -96 286 0
39 -229 96 -286 0
39 229 127 317 0
-39 229 -127 317 0
39 -229 127 -317 0
40 230 79 269 0
-40 230 -79 269 0
40 -230 79 -269 0
40 230 100 290 0
-40 230 -100 290 0
40 -230 100 -290 0
40 230 55 245 0
-40 230 -55 245 0
40 -230 55 -245 0
40 230 159 349 0
-40 230 -159 349 0
40 -230 159 -349 0
41 231 92 282 0
-41 231 -92 282 0
41 -231 92 -282 0
41 231 103 293 0
-41 231 -103 293 0
41 -231 103 -293 0
41 231 76 266 0
-41 231 -76 266 0
41 -231 76 -266 0
41 231 165 355 0
-41 231 -165 355 0
41 -231 165 -355 0
42 232 106 296 0
-42 232 -106 296 0
42 -232 106 -296 0
42 232 150 340 0
-42 232 -150 340 0
42 -232 150 -340 0
42 232 115 305 0
-42 232 -115 305 0
42 -232 115 -305 0
42 232 123 313 0
-42 232 -123 313 0
42 -232 123 -313 0
43 233 179 369 0
-43 233 -179 369 0
43 -233 179 -369 0
43 233 53 243 0
-43 233 -53 243 0
43 -233 53 -243 0
43 233 80 270 0
-43 233 -80 270 0
43 -233 80 -270 0
43 233 95 285 0
-43 233 -95 285 0
43 -233 95 -285 0
43 233 44 234 0
-43 233 -44 234 0
43 -233 44 -234 0
44 234 55 245 0
-44 234 -55 245 0
44 -234 55 -245 0
44 234 117 307 0
-44 234 -117 307 0
44 -234 117 -307 0
44 234 153 343 0
-44 234 -153 343 0
44 -234 153 -343 0
44 234 132 322 0
-44 234 -132 322 0
44 -234 132 -322 0
45 235 143 333 0
-45 235 -143 333 0
45 -235 143 -333 0
45 235 108 298 0
-45 235 -108 298 0
45 -235 108 -298 0
45 235 121 311 0
-45 235 -121 311 0
45 -235 121 -311 0
45 235 186 376 0
-45 235 -186 376 0
45 -235 186 -376 0
45 235 65 255 0
-45 235 -65 255 0
45 -235 65 -255 0
46 236 79 269 0
-46 236 -79 269 0
46 -236 79 -269 0
46 236 72 262 0
-46 236 -72 262 0
46 -236 72 -262 0
46 236 154 344 0
-46 236 -154 344 0
46 -236 154 -344 0
46 236 78 268 0
-46 236 -78 268 0
46 -236 78 -268 0
47 237 123 313 0
-47 237 -123 313 0
47 -237 123 -313 0
47 237 53 243 0
-47 237 -53 243 0
47 -237 53 -243 0
47 237 73 263 0
-47 237 -73 263 0
47 -237 73 -263 0
48 238 133 323 0
-48 238 -133 323 0
48 -238 133 -323 0
48 238 178 368 0
-48 238 -178 368 0
48 -238 178 -368 0
48 238 70 260 0
-48 238 -70 260 0
48 -238 70 -260 0
48 238 163 353 0
-48 238 -163 353 0
48 -238 163 -353 0
48 238 113 303 0
-48 238 -113 303 0
48 -238 113 -303 0
49 239 75 265 0
-49 239 -75 265 0
49 -239 75 -265 0
49 239 105 295 0
-49 239 -105 295 0
49 -239 105 -295 0
49 239 138 328 0
-49 239 -138 328 0
49 -239 138 -328 0
49 239 158 348 0
-49 239 -158 348 0
49 -239 158 -348 0
49 239 120 310 0
-49 239 -120 310 0
49 -239 120 -310 0
50 240 93 283 0
-50 240 -93 283 0
50 -240 93 -283 0
50 240 173 363 0
-50 240 -173 363 0
50 -240 173 -363 0
51 241 78 268 0
-51 241 -78 268 0
51 -241 78 -268 0
51 241 105 295 0
-51 241 -105 295 0
51 -241 105 -295 0
51 241 101 291 0
-51 241 -101 291 0
51 -241 101 -291 0
52 242 88 278 0
-52 242 -88 278 0
52 -242 88 -278 0
52 242 157 347 0
-52 242 -157 347 0
52 -242 157 -347 0
52 242 59 249 0
-52 242 -59 249 0
52 -242 59 -249 0
52 242 64 254 0
-52 242 -64 254 0
52 -242 64 -254 0
52 242 110 300 0
-52 242 -110 300 0
52 -242 110 -300 0
53 243 155 345 0
-53 243 -155 345 0
53 -243 155 -345 0
53 243 171 361 0
-53 243 -171 361 0
53 -243 171 -361 0
54 244 103 293 0
-54 244 -103 293 0
54 -244 103 -293 0
54 244 84 274 0
-54 244 -84 274 0
54 -244 84 -274 0
54 244 98 288 0
-54 244 -98 288 0
54 -244 98 -288 0
55 245 176 366 0
-55 245 -176 366 0
55 -245 176 -366 0
56 246 175 365 0
-56 246 -175 365 0
56 -246 175 -365 0
56 246 174 364 0
-56 246 -174 364 0
56 -246 174 -364 0
56 246 183 373 0
-56 246 -183 373 0
56 -246 183 -373 0
56 246 79 269 0
-56 246 -79 269 0
56 -246 79 -269 0
57 247 127 317 0
-57 247 -127 317 0
57 -247 127 -317 0
57 247 61 251 0
-57 247 -61 251 0
57 -247 61 -251 0
57 247 175 365 0
-57 247 -175 365 0
57 -247 175 -365 0
57 247 148 338 0
-57 247 -148 338 0
57 -247 148 -338 0
57 247 61 251 0
-57 247 -61 251 0
57 -247 61 -251 0
58 248 84 274 0
-58 248 -84 274 0
58 -248 84 -274 0
58 248 187 377 0
-58 248 -187 377 0
58 -248 187 -377 0
58 248 111 301 0
-58 248 -111 301 0
58 -248 111 -301 0
58 248 174 364 0
-58 248 -174 364 0
58 -248 174 -364 0
59 249 122 312 0
-59 249 -122 312 0
59 -249 122 -312 0
59 249 136 326 0
-59 249 -136 326 0
59 -249 136 -326 0
59 249 69 259 0
-59 249 -69 259 0
59 -249 69 -259 0
60 250 162 352 0
-60 250 -162 352 0
60 -250 162 -352 0
60 250 171 361 0
-60 250 -171 361 0
60 -250 171 -361 0
61 251 128 318 0
-61 251 -128 318 0
61 -251 128 -318 0
62 252 154 344 0
-62 252 -154 344 0
62 -252 154 -344 0
62 252 76 266 0
-62 252 -76 266 0
62 -252 76 -266 0
62 252 71 261 0
-62 252 -71 261 0
62 -252 71 -261 0
63 253 86 276 0
-63 253 -86 276 0
63 -253 86 -276 0
63 253 72 262 0
-63 253 -72 262 0
63 -253 72 -262 0
63 253 159 349 0
-63 253 -159 349 0
63 -253 159 -349 0
63 253 74 264 0
-63 253 -74 264 0
63 -253 74 -264 0
64 254 66 256 0
-64 254 -66 256 0
64 -254 66 -256 0
64 254 130 320 0
-64 254 -130 320 0
64 -254 130 -320 0
64 254 124 314 0
-64 254 -124 314 0
64 -254 124 -314 0
65 255 152 342 0
-65 255 -152 342 0
65 -255 152 -342 0
65 255 181 371 0
-65 255 -181 371 0
65 -255 181 -371 0
65 255 170 360 0
-65 255 -170 360 0
65 -255 170 -360 0
65 255 95 285 0
-65 255 -95 285 0
65 -255 95 -285 0
66 256 94 284 0
-66 256 -94 284 0
66 -256 94 -284 0
66 256 183 373 0
-66 256 -183 373 0
66 -256 183 -373 0
66 256 131 321 0
-66 256 -131 321 0
66 -256 131 -321 0
66 256 184 374 0
-66 256 -184 374 0
66 -256 184 -374 0
67 257 135 325 0
-67 257 -135 325 0
67 -257 135 -325 0
67 257 84 274 0
-67 257 -84 274 0
67 -257 84 -274 0
67 257 121 311 0
-67 257 -121 311 0
67 -257 121 -311 0
67 257 167 357 0
-67 257 -167 357 0
67 -257 167 -357 0
68 258 114 304 0
-68 258 -114 304 0
68 -258 114 -304 0
68 258 150 340 0
-68 258 -150 340 0
68 -258 150 -340 0
68 258 173 363 0
-68 258 -173 363 0
68 -258 173 -363 0
68 258 88 278 0
-68 258 -88 278 0
68 -258 88 -278 0
69 259 163 353 0
-69 259 -163 353 0
69 -259 163 -353 0
69 259 122 312 0
-69 259 -122 312 0
69 -259 122 -312 0
69 259 135 325 0
-69 259 -135 325 0
69 -259 135 -325 0
70 260 150 340 0
-70 260 -150 340 0
70 -260 150 -340 0
70 260 101 291 0
-70 260 -101 291 0
70 -260 101 -291 0
70 260 156 346 0
-70 260 -156 346 0
70 -260 156 -346 0
70 260 149 339 0
-70 260 -149 339 0
70 -260 149 -339 0
71 261 109 299 0
-71 261 -109 299 0
71 -261 109 -299 0
71 261 172 362 0
-71 261 -172 362 0
71 -261 172 -362 0
71 261 132 322 0
-71 261 -132 322 0
71 -261 132 -322 0
72 262 185 375 0
-72 262 -185 375 0
72 -262 185 -375 0
72 262 144 334 0
-72 262 -144 334 0
72 -262 144 -334 0
72 262 174 364 0
-72 262 -174 364 0
72 -262 174 -364 0
73 263 157 347 0
-73 263 -157 347 0
73 -263 157 -347 0
73 263 147 337 0
-73 263 -147 337 0
73 -263 147 -337 0
73 263 181 371 0
-73 263 -181 371 0
73 -263 181 -371 0
73 263 176 366 0
-73 263 -176 366 0
73 -263 176 -366 0
74 264 83 273 0
-74 264 -83 273 0
74 -264 83 -273 0
74 264 163 353 0
-74 264 -163 353 0
74 -264 163 -353 0
75 265 185 375 0
-75 265 -185 375 0
75 -265 185 -375 0
75 265 151 341 0
-75 265 -151 341 0
75 -265 151 -341 0
76 266 122 312 0
-76 266 -122 312 0
76 -266 122 -312 0
76 266 151 341 0
-76 266 -151 341 0
76 -266 151 -341 0
76 266 163 353 0
-76 266 -163 353 0
76 -266 163 -353 0
77 267 173 363 0
-77 267 -173 363 0
77 -267 173 -363 0
77 267 156 346 0
-77 267 -156 346 0
77 -267 156 -346 0
77 267 178 368 0
-77 267 -178 368 0
77 -267 178 -368 0
77 267 93 283 0
-77 267 -93 283 0
77 -267 93 -283 0
78 268 180 370 0
-78 268 -180 370 0
78 -268 180 -370 0
78 268 87 277 0
-78 268 -87 277 0
78 -268 87 -277 0
78 268 180 370 0
-78 268 -180 370 0
78 -268 180 -370 0
79 269 168 358 0
-79 269 -168 358 0
79 -269 168 -358 0
80 270 170 360 0
-80 270 -170 360 0
80 -270 170 -360 0
80 270 97 287 0
-80 270 -97 287 0
80 -270 97 -287 0
80 270 106 296 0
-80 270 -106 296 0
80 -270 106 -296 0
81 271 142 332 0
-81 271 -142 332 0
81 -271 142 -332 0
81 271 134 324 0
-81 271 -134 324 0
81 -271 134 -324 0
81 271 164 354 0
-81 271 -164 354 0
81 -271 164 -354 0
81 271 171 361 0
-81 271 -171 361 0
81 -271 171 -361 0
81 271 127 317 0
-81 271 -127 317 0
81 -271 127 -317 0
82 272 111 301 0
-82 272 -111 301 0
82 -272 111 -301 0
82 272 100 290 0
-82 272 -100 290 0
82 -272 100 -290 0
82 272 189 379 0
-82 272 -189 379 0
82 -272 189 -379 0
82 272 115 305 0
-82 272 -115 305 0
82 -272 115 -305 0
82 272 102 292 0
-82 272 -102 292 0
82 -272 102 -292 0
83 273 187 377 0
-83 273 -187 377 0
83 -273 187 -377 0
83 273 143 333 0
-83 273 -143 333 0
83 -273 143 -333 0
83 273 159 349 0
-83 273 -159 349 0
83 -273 159 -349 0
84 274 98 288 0
-84 274 -98 288 0
84 -274 98 -288 0
84 274 164 354 0
-84 274 -164 354 0
84 -274 164 -354 0
85 275 88 278 0
-85 275 -88 278 0
85 -275 88 -278 0
85 275 164 354 0
-85 275 -164 354 0
85 -275 164 -354 0
85 275 125 315 0
-85 275 -125 315 0
85 -275 125 -315 0
86 276 93 283 0
-86 276 -93 283 0
86 -276 93 -283 0
86 276 102 292 0
-86 276 -102 292 0
86 -276 102 -292 0
86 276 184 374 0
-86 276 -184 374 0
86 -276 184 -374 0
86 276 177 367 0
-86 276 -177 367 0
86 -276 177 -367 0
87 277 111 301 0
-87 277 -111 301 0
87 -277 111 -301 0
87 277 179 369 0
-87 277 -179 369 0
87 -277 179 -369 0
87 277 130 320 0
-87 277 -130 320 0
87 -277 130 -320 0
87 277 169 359 0
-87 277 -169 359 0
87 -277 169 -359 0
88 278 168 358 0
-88 278 -168 358 0
88 -278 168 -358 0
88 278 150 340 0
-88 278 -150 340 0
88 -278 150 -340 0
89 279 145 335 0
-89 279 -145 335 0
89 -279 145 -335 0
89 279 120 310 0
-89 279 -120 310 0
89 -279 120 -310 0
90 280 190 380 0
-90 280 -190 380 0
90 -280 190 -380 0
90 280 118 308 0
-90 280 -118 308 0
90 -280 118 -308 0
90 280 117 307 0
-90 280 -117 307 0
90 -280 117 -307 0
90 280 185 375 0
-90 280 -185 375 0
90 -280 185 -375 0
91 281 103 293 0
-91 281 -103 293 0
91 -281 103 -293 0
91 281 173 363 0
-91 281 -173 363 0
91 -281 173 -363 0
91 281 99 289 0
-91 281 -99 289 0
91 -281 99 -289 0
92 282 101 291 0
-92 282 -101 291 0
92 -282 101 -291 0
92 282 140 330 0
-92 282 -140 330 0
92 -282 140 -330 0
92 282 96 286 0
-92 282 -96 286 0
92 -282 96 -286 0
93 283 122 312 0
-93 283 -122 312 0
93 -283 122 -312 0
93 283 166 356 0
-93 283 -166 356 0
93 -283 166 -356 0
94 284 136 326 0
-94 284 -136 326 0
94 -284 136 -326 0
94 284 178 368 0
-94 284 -178 368 0
94 -284 178 -368 0
95 285 141 331 0
-95 285 -141 331 0
95 -285 141 -331 0
95 285 114 304 0
-95 285 -114 304 0
95 -285 114 -304 0
96 286 98 288 0
-96 286 -98 288 0
96 -286 98 -288 0
96 286 139 329 0
-96 286 -139 329 0
96 -286 139 -329 0
96 286 140 330 0
-96 286 -140 330 0
96 -286 140 -330 0
97 287 129 319 0
-97 287 -129 319 0
97 -287 129 -319 0
97 287 166 356 0
-97 287 -166 356 0
97 -287 166 -356 0
97 287 170 360 0
-97 287 -170 360 0
97 -287 170 -360 0
97 287 145 335 0
-97 287 -145 335 0
97 -287 145 -335 0
98 288 160 350 0
-98 288 -160 350 0
98 -288 160 -350 0
99 289 135 325 0
-99 289 -135 325 0
99 -289 135 -325 0
99 289 108 298 0
-99 289 -108 298 0
99 -289 108 -298 0
100 290 133 323 0
-100 290 -133 323 0
100 -290 133 -323 0
100 290 190 380 0
-100 290 -190 380 0
100 -290 190 -380 0
101 291 104 294 0
-101 291 -104 294 0
101 -291 104 -294 0
101 291 144 334 0
-101 291 -144 334 0
101 -291 144 -334 0
102 292 168 358 0
-102 292 -168 358 0
102 -292 168 -358 0
102 292 161 351 0
-102 292 -161 351 0
102 -292 161 -351 0
103 293 137 327 0
-103 293 -137 327 0
103 -293 137 -327 0
103 293 150 340 0
-103 293 -150 340 0
103 -293 150 -340 0
104 294 185 375 0
-104 294 -185 375 0
104 -294 185 -375 0
105 295 158 348 0
-105 295 -158 348 0
105 -295 158 -348 0
106 296 146 336 0
-106 296 -146 336 0
106 -296 146 -336 0
106 296 144 334 0
-106 296 -144 334 0
106 -296 144 -334 0
106 296 136 326 0
-106 296 -136 326 0
106 -296 136 -326 0
107 297 110 300 0
-107 297 -110 300 0
107 -297 110 -300 0
107 297 125 315 0
-107 297 -125 315 0
107 -297 125 -315 0
107 297 137 327 0
-107 297 -137 327 0
107 -297 137 -327 0
107 297 145 335 0
-107 297 -145 335 0
107 -297 145 -335 0
108 298 172 362 0
-108 298 -172 362 0
108 -298 172 -362 0
108 298 118 308 0
-108 298 -118 308 0
108 -298 118 -308 0
109 299 137 327 0
-109 299 -137 327 0
109 -299 137 -327 0
109 299 129 319 0
-109 299 -129 319 0
109 -299 129 -319 0
109 299 184 374 0
-109 299 -184 374 0
109 -299 184 -374 0
110 300 115 305 0
-110 300 -115 305 0
110 -300 115 -305 0
111 301 130 320 0
-111 301 -130 320 0
111 -301 130 -320 0
111 301 146 336 0
-111 301 -146 336 0
111 -301 146 -336 0
112 302 152 342 0
-112 302 -152 342 0
112 -302 152 -342 0
112 302 148 338 0
-112 302 -148 338 0
112 -302 148 -338 0
112 302 134 324 0
-112 302 -134 324 0
112 -302 134 -324 0
112 302 154 344 0
-112 302 -154 344 0
112 -302 154 -344 0
113 303 160 350 0
-113 303 -160 350 0
113 -303 160 -350 0
113 303 132 322 0
-113 303 -132 322 0
113 -303 132 -322 0
114 304 169 359 0
-114 304 -169 359 0
114 -304 169 -359 0
115 305 152 342 0
-115 305 -152 342 0
115 -305 152 -342 0
116 306 118 308 0
-116 306 -118 308 0
116 -306 118 -308 0
116 306 159 349 0
-116 306 -159 349 0
116 -306 159 -349 0
116 306 177 367 0
-116 306 -177 367 0
116 -306 177 -367 0
116 306 133 323 0
-116 306 -133 323 0
116 -306 133 -323 0
117 307 190 380 0
-117 307 -190 380 0
117 -307 190 -380 0
118 308 182 372 0
-118 308 -182 372 0
118 -308 182 -372 0
118 308 187 377 0
-118 308 -187 377 0
118 -308 187 -377 0
119 309 170 360 0
-119 309 -170 360 0
119 -309 170 -360 0
119 309 134 324 0
-119 309 -134 324 0
119 -309 134 -324 0
120 310 161 351 0
-120 310 -161 351 0
120 -310 161 -351 0
120 310 156 346 0
-120 310 -156 346 0
120 -310 156 -346 0
121 311 128 318 0
-121 311 -128 318 0
121 -311 128 -318 0
121 311 180 370 0
-121 311 -180 370 0
121 -311 180 -370 0
121 311 190 380 0
-121 311 -190 380 0
121 -311 190 -380 0
123 313 157 347 0
-123 313 -157 347 0
123 -313 157 -347 0
124 314 155 345 0
-124 314 -155 345 0
124 -314 155 -345 0
124 314 158 348 0
-124 314 -158 348 0
124 -314 158 -348 0
125 315 189 379 0
-125 315 -189 379 0
125 -315 189 -379 0
125 315 182 372 0
-125 315 -182 372 0
125 -315 182 -372 0
126 316 128 318 0
-126 316 -128 318 0
126 -316 128 -318 0
126 316 178 368 0
-126 316 -178 368 0
126 -316 178 -368 0
126 316 176 366 0
-126 316 -176 366 0
126 -316 176 -366 0
126 316 141 331 0
-126 316 -141 331 0
126 -316 141 -331 0
127 317 183 373 0
-127 317 -183 373 0
127 -317 183 -373 0
128 318 173 363 0
-128 318 -173 363 0
128 -318 173 -363 0
128 318 176 366 0
-128 318 -176 366 0
128 -318 176 -366 0
129 319 154 344 0
-129 319 -154 344 0
129 -319 154 -344 0
130 320 159 349 0
-130 320 -159 349 0
130 -320 159 -349 0
131 321 148 338 0
-131 321 -148 338 0
131 -321 148 -338 0
131 321 167 357 0
-131 321 -167 357 0
131 -321 167 -357 0
132 322 162 352 0
-132 322 -162 352 0
132 -322 162 -352 0
132 322 186 376 0
-132 322 -186 376 0
132 -322 186 -376 0
133 323 177 367 0
-133 323 -177 367 0
133 -323 177 -367 0
134 324 147 337 0
-134 324 -147 337 0
134 -324 147 -337 0
134 324 185 375 0
-134 324 -185 375 0
134 -324 185 -375 0
135 325 172 362 0
-135 325 -172 362 0
135 -325 172 -362 0
135 325 174 364 0
-135 325 -174 364 0
135 -325 174 -364 0
136 326 155 345 0
-136 326 -155 345 0
136 -326 155 -345 0
136 326 165 355 0
-136 326 -165 355 0
136 -326 165 -355 0
137 327 182 372 0
-137 327 -182 372 0
137 -327 182 -372 0
137 327 186 376 0
-137 327 -186 376 0
137 -327 186 -376 0
138 328 157 347 0
-138 328 -157 347 0
138 -328 157 -347 0
138 328 156 346 0
-138 328 -156 346 0
138 -328 156 -346 0
139 329 140 330 0
-139 329 -140 330 0
139 -329 140 -330 0
139 329 183 373 0
-139 329 -183 373 0
139 -329 183 -373 0
140 330 152 342 0
-140 330 -152 342 0
140 -330 152 -342 0
141 331 169 359 0
-141 331 -169 359 0
141 -331 169 -359 0
141 331 151 341 0
-141 331 -151 341 0
141 -331 151 -341 0
141 331 174 364 0
-141 331 -174 364 0
141 -331 174 -364 0
142 332 178 368 0
-142 332 -178 368 0
142 -332 178 -368 0
142 332 160 350 0
-142 332 -160 350 0
142 -332 160 -350 0
144 334 167 357 0
-144 334 -167 357 0
144 -334 167 -357 0
145 335 157 347 0
-145 335 -157 347 0
145 -335 157 -347 0
146 336 175 365 0
-146 336 -175 365 0
146 -336 175 -365 0
146 336 183 373 0
-146 336 -183 373 0
146 -336 183 -373 0
147 337 181 371 0
-147 337 -181 371 0
147 -337 181 -371 0
147 337 165 355 0
-147 337 -165 355 0
147 -337 165 -355 0
147 337 155 345 0
-147 337 -155 345 0
147 -337 155 -345 0
148 338 186 376 0
-148 338 -186 376 0
148 -338 186 -376 0
149 339 189 379 0
-149 339 -189 379 0
149 -339 189 -379 0
151 341 188 378 0
-151 341 -188 378 0
151 -341 188 -378 0
153 343 170 360 0
-153 343 -170 360 0
153 -343 170 -360 0
153 343 188 378 0
-153 343 -188 378 0
153 -343 188 -378 0
155 345 179 369 0
-155 345 -179 369 0
155 -345 179 -369 0
156 346 184 374 0
-156 346 -184 374 0
156 -346 184 -374 0
160 350 166 356 0
-160 350 -166 356 0
160 -350 166 -356 0
160 350 179 369 0
-160 350 -179 369 0
160 -350 179 -369 0
161 351 175 365 0
-161 351 -175 365 0
161 -351 175 -365 0
165 355 169 359 0
-165 355 -169 359 0
165 -355 169 -359 0
166 356 171 361 0
-166 356 -171 361 0
166 -356 171 -361 0
166 356 187 377 0
-166 356 -187 377 0
166 -356 187 -377 0
167 357 177 367 0
-167 357 -177 367 0
167 -357 177 -367 0
168 358 180 370 0
-168 358 -180 370 0
168 -358 180 -370 0
179 369 180 370 0
-179 369 -180 370 0
179 -369 180 -370 0
188 378 190 380 0
-188 378 -190 380 0
188 -378 190 -380 0
c p weight 8 0.77836914 0
c p weight -8 0.22163086 0
c p weight 9 0.51973547 0
c p weight -9 0.48026453 0
c p weight 14 0.53429638 0
c p weight -14 0.46570362 0
c p weight 15 0.48871696 0
c p weight -15 0.51128304 0
c p weight 20 0.22776015 0
c p weight -20 0.77223985 0
c p weight 21 0.72621557 0
c p weight -21 0.27378443 0
c p weight 23 0.52849449 0
c p weight -23 0.47150551 0
c p weight 27 0.62135792 0
c p weight -27 0.37864208 0
c p weight 28 0.51905991 0
c p weight -28 0.48094009 0
c p weight 29 0.67957405 0
c p weight -29 0.32042595 0
c p weight 32 0.50254392 0
c p weight -32 0.49745608 0
c p weight 37 0.78249832 0
c p weight -37 0.21750168 0
c p weight 39 0.59030781 0
c p weight -39 0.40969219 0
c p weight 41 0.53195609 0
c p weight -41 0.46804391 0
c p weight 53 0.59031740 0
c p weight -53 0.40968260 0
c p weight 56 0.31966997 0
c p weight -56 0.68033003 0
c p weight 58 0.54714112 0
c p weight -58 0.45285888 0
c p weight 65 0.29146184 0
c p weight -65 0.70853816 0
c p weight 68 0.63588766 0
c p weight -68 0.36411234 0
c p weight 70 0.68218275 0
c p weight -70 0.31781725 0
c p weight 75 0.33760042 0
c p weight -75 0.66239958 0
c p weight 76 0.72411381 0
c p weight -76 0.27588619 0
c p weight 77 0.37705254 0
c p weight -77 0.62294746 0
c p weight 87 0.52863922 0
c p weight -87 0.47136078 0
c p weight 88 0.71029985 0
c p weight -88 0.28970015 0
c p weight 89 0.64013051 0
c p weight -89 0.35986949 0
c p weight 94 0.73316039 0
c p weight -94 0.26683961 0
c p weight 95 0.40023235 0
c p weight -95 0.59976765 0
c p weight 104 0.38285719 0
c p weight -104 0.61714281 0
c p weight 112 0.57554318 0
c p weight -112 0.42445682 0
c p weight 113 0.50765360 0
c p weight -113 0.49234640 0
c p weight 119 0.20757238 0
c p weight -119 0.79242762 0
c p weight 120 0.72947659 0
c p weight -120 0.27052341 0
c p weight 124 0.44292293 0
c p weight -124 0.55707707 0
c p weight 126 0.31885850 0
c p weight -126 0.68114150 0
c p weight 130 0.78614865 0
c p weight -130 0.21385135 0
c p weight 131 0.38167263 0
c p weight -131 0.61832737 0
c p weight 135 0.29377786 0
c p weight -135 0.70622214 0
c p weight 137 0.79018929 0
c p weight -137 0.20981071 0
c p weight 138 0.40176520 0
c p weight -138 0.59823480 0
c p weight 141 0.57207058 0
c p weight -141 0.42792942 0
c p weight 142 0.35161874 0
c p weight -142 0.64838126 0
c p weight 144 0.29162770 0
c p weight -144 0.70837230 0
c p weight 146 0.53404052 0
c p weight -146 0.46595948 0
c p weight 149 0.61114193 0
c p weight -149 0.38885807 0
c p weight 152 0.25893609 0
c p weight -152 0.74106391 0
c p weight 154 0.44445403 0
c p weight -154 0.55554597 0
c p weight 163 0.39310320 0
c p weight -163 0.60689680 0
c p weight 170 0.23190009 0
c p weight -170 0.76809991 0
c p weight 173 0.33089915 0
c p weight -173 0.66910085 0
c p weight 174 0.24847802 0
c p weight -174 0.75152198 0
c p weight 176 0.22692604 0
c p weight -176 0.77307396 0
c p weight 178 0.51675686 0
c p weight -178 0.48324314 0
c p weight 179 0.54269295 0
c p weight -179 0.45730705 0
c p weight 182 0.53179638 0
c p weight -182 0.46820362 0
c p weight 189 0.21839689 0
c p weight -189 0.78160311 0
c p weight 192 0.63222114 0
c p weight -192 0.36777886 0
c p weight 193 0.29458488 0
c p weight -193 0.70541512 0
c p weight 197 0.42419875 0
c p weight -197 0.57580125 0
c p weight 199 0.31108192 0
c p weight -199 0.68891808 0
c p weight 200 0.35014320 0
c p weight -200 0.64985680 0
c p weight 202 0.59054109 0
c p weight -202 0.40945891 0
c p weight 206 0.29095171 0
c p weight -206 0.70904829 0
c p weight 207 0.44505373 0
c p weight -207 0.55494627 0
c p weight 208 0.69885036 0
c p weight -208 0.30114964 0
c p weight 209 0.75712718 0
c p weight -209 0.24287282 0
c p weight 210 0.32073784 0
c p weight -210 0.67926216 0
c p weight 211 0.28454019 0
c p weight -211 0.71545981 0
c p weight 213 0.50748793 0
c p weight -213 0.49251207 0
c p weight 215 0.64660183 0
c p weight -215 0.35339817 0
c p weight 218 0.66997907 0
c p weight -218 0.33002093 0
c p weight 219 0.34890091 0
c p weight -219 0.65109909 0
c p weight 220 0.26052255 0
c p weight -220 0.73947745 0
c p weight 222 0.75054794 0
c p weight -222 0.24945206 0
c p weight 224 0.28492954 0
c p weight -224 0.71507046 0
c p weight 226 0.67277927 0
c p weight -226 0.32722073 0
c p weight 230 0.23264788 0
c p weight -230 0.76735212 0
c p weight 231 0.42254023 0
c p weight -231 0.57745977 0
c p weight 234 0.78448665 0
c p weight -234 0.21551335 0
c p weight 237 0.79732870 0
c p weight -237 0.20267130 0
c p weight 239 0.78866347 0
c p weight -239 0.21133653 0
c p weight 240 0.29946877 0
c p weight -240 0.70053123 0
c p weight 242 0.40662181 0
c p weight -242 0.59337819 0
c p weight 244 0.31002969 0
c p weight -244 0.68997031 0
c p weight 248 0.54623003 0
c p weight -248 0.45376997 0
c p weight 249 0.65437713 0
c p weight -249 0.34562287 0
c p weight 254 0.45957134 0
c p weight -254 0.54042866 0
c p weight 256 0.79167433 0
c p weight -256 0.20832567 0
c p weight 257 0.62128496 0
c p weight -257 0.37871504 0
c p weight 261 0.34676501 0
c p weight -261 0.65323499 0
c p weight 264 0.36606800 0
c p weight -264 0.63393200 0
c p weight 266 0.29717806 0
c p weight -266 0.70282194 0
c p weight 269 0.38984334 0
c p weight -269 0.61015666 0
c p weight 270 0.42330859 0
c p weight -270 0.57669141 0
c p weight 272 0.46013618 0
c p weight -272 0.53986382 0
c p weight 282 0.34333287 0
c p weight -282 0.65666713 0
c p weight 283 0.67709657 0
c p weight -283 0.32290343 0
c p weight 287 0.42530932 0
c p weight -287 0.57469068 0
c p weight 289 0.58494578 0
c p weight -289 0.41505422 0
c p weight 291 0.58868844 0
c p weight -291 0.41131156 0
c p weight 292 0.60178082 0
c p weight -292 0.39821918 0
c p weight 293 0.63885499 0
c p weight -293 0.36114501 0
c p weight 303 0.44189708 0
c p weight -303 0.55810292 0
c p weight 304 0.21727968 0
c p weight -304 0.78272032 0
c p weight 309 0.60457902 0
c p weight -309 0.39542098 0
c p weight 315 0.50782311 0
c p weight -315 0.49217689 0
c p weight 323 0.28053160 0
c p weight -323 0.71946840 0
c p weight 324 0.77103413 0
c p weight -324 0.22896587 0
c p weight 325 0.66951668 0
c p weight -325 0.33048332 0
c p weight 326 0.51028460 0
c p weight -326 0.48971540 0
c p weight 334 0.41843556 0
c p weight -334 0.58156444 0
c p weight 336 0.55244635 0
c p weight -336 0.44755365 0
c p weight 337 0.62640686 0
c p weight -337 0.37359314 0
c p weight 342 0.61098246 0
c p weight -342 0.38901754 0
c p weight 345 0.36342944 0
c p weight -345 0.63657056 0
c p weight 346 0.22022167 0
c p weight -346 0.77977833 0
c p weight 347 0.42969231 0
c p weight -347 0.57030769 0
c p weight 349 0.23009907 0
c p weight -349 0.76990093 0
c p weight 350 0.33112429 0
c p weight -350 0.66887571 0
c p weight 358 0.46745488 0
c p weight -358 0.53254512 0
c p weight 362 0.54125921 0
c p weight -362 0.45874079 0
c p weight 366 0.61187560 0
c p weight -366 0.38812440 0
c p weight 367 0.23853772 0
c p weight -367 0.76146228 0
c p weight 372 0.50849897 0
c p weight -372 0.49150103 0
c p weight 375 0.28234820 0
c p weight -375 0.71765180 0
c p weight 379 0.43478526 0
c p weight -379 0.56521474 0
c p weight 380 0.74815396 0
c p weight -380 0.25184604 0
